# LAMMPS Input Script to Test FixSymmetry

units           metal
dimension       3
boundary        p p p
atom_style      atomic

# Define a simple FCC lattice
#lattice         fcc 3.75
#region          box block 0 2 0 2 0 2 units lattice
#create_box      1 box
#create_atoms    1 box
#change_box all x scale 1.1 y scale 1.1 z scale 1.1 units box
read_data       cu.dat

mass            1 63.546  # Mass of Copper

# Define EAM potential for Copper
pair_style      eam
pair_coeff      * * Cu_u3.eam

dump            mydump all custom 1 dump.symmetry_test.lammpstrj id type x y z fx fy fz element
dump_modify     mydump every 1 element Cu flush yes
thermo          1

# Apply FixSymmetry with space group number 225 (Fm-3m)
# and a tolerance of 1e-5
fix             sym all symmetry -1 1e-4 true true true
#fix             sym all symmetry 225 1e-5


# Set up minimization
min_style       cg
#fix            2 all box/relax iso 0.01 vmax 0.001
minimize        1e-6 1e-6 20 20

#unfix           2
#fix             1 all npt temp 300 300 0.1 iso 0.0 0.0 1.0

# Run the simulation
#velocity        all create 300 4928459 dist gaussian
#run 100

